Minimize
  - 7 y_0 - 17 y_1 - 52 y_2 - 19 y_3 - 24 y_4 - 18 y_5 - 49 y_6 - 26 y_7
   - 42 y_8 - 26 y_9 - 58 y_10 - 42 y_11 - 28 y_12 - 56 y_13 - 51 y_14
   - 48 y_15 - 33 y_16 - 29 y_17 - 52 y_18 - 16 y_19 - 12 y_20 - 53 y_21
   - 56 y_22 - 38 y_23 - 54 y_24 - 56 y_25 - 6 y_26 - 55 y_27 - 39 y_28
   - 37 y_29 - 34 y_30 - 42 y_31 - 26 y_32 - 48 y_33 - 42 y_34 - 54 y_35
   - 44 y_36 - 52 y_37 - 37 y_38 - 53 y_39 - 16 y_40 - 37 y_41 - 19 y_42
   - 24 y_43 - 18 y_44 - 62 y_45 - 27 y_46 - 33 y_47 - 53 y_48 - 7 y_49
   - 47 y_50 - 43 y_51 - 51 y_52 - 43 y_53 - 47 y_55 - 58 y_56 - 46 y_57
   - 25 y_58 - 26 y_59 - 45 y_60 - 20 y_61 - 11 y_62 - 39 y_63 - 24 y_64
   - 49 y_65 - 31 y_66 - 48 y_67 - 50 y_68 - 44 y_69 - 42 y_70 - 44 y_71
   - 26 y_72 - 34 y_73 - 26 y_74 - 46 y_75 - 51 y_76 - 23 y_77 - 55 y_78
   - 52 y_79 - 36 y_80 - 43 y_81 - 59 y_82 - 51 y_83 - 36 y_84 - 17 y_85
   - 38 y_86 - 13 y_87 - 42 y_88 - 59 y_89 - 62 y_90 - 32 y_91 - 30 y_92
   - 36 y_93 - 17 y_94 - 13 y_95 - 45 y_96 - 41 y_97 - 45 y_98 - 56 y_99
   + 3744 Constant
Subject To
 c_0: y_0 = 1
 c_1_0: y_0 + y_26 + y_49 + y_62 >= 1
 c_1_1: y_1 + y_3 + y_5 + y_40 + y_87 >= 1
 c_1_2: y_2 + y_6 + y_21 + y_52 + y_76 + y_99 >= 1
 c_1_3: y_1 + y_3 + y_4 + y_40 + y_61 >= 1
 c_1_4: y_3 + y_4 + y_7 + y_61 + y_64 >= 1
 c_1_5: y_1 + y_5 + y_42 + y_77 + y_87 >= 1
 c_1_6: y_2 + y_6 + y_52 + y_55 + y_57 + y_76 >= 1
 c_1_7: y_4 + y_7 + y_32 >= 1
 c_1_8: y_8 + y_28 + y_31 + y_51 + y_97 + y_98 >= 1
 c_1_9: y_9 + y_12 + y_43 >= 1
 c_1_10: y_10 + y_90 + y_99 >= 1
 c_1_11: y_11 + y_28 + y_51 + y_60 + y_97 >= 1
 c_1_12: y_9 + y_12 + y_43 + y_46 + y_59 + y_72 + y_74 + y_91 >= 1
 c_1_13: y_13 + y_21 + y_22 + y_48 >= 1
 c_1_14: y_14 + y_24 + y_35 + y_68 + y_78 + y_83 >= 1
 c_1_15: y_15 + y_37 + y_71 + y_96 >= 1
 c_1_16: y_16 + y_23 >= 1
 c_1_17: y_17 + y_58 >= 1
 c_1_18: y_18 + y_37 + y_39 >= 1
 c_1_19: y_19 + y_44 + y_95 >= 1
 c_1_20: y_20 + y_87 >= 1
 c_1_21: y_2 + y_13 + y_21 + y_48 + y_52 + y_76 >= 1
 c_1_22: y_13 + y_22 + y_48 + y_79 >= 1
 c_1_23: y_16 + y_23 + y_63 + y_88 >= 1
 c_1_24: y_14 + y_24 + y_35 + y_68 + y_78 + y_82 >= 1
 c_1_25: y_25 + y_27 + y_35 + y_56 + y_78 + y_83 >= 1
 c_1_26: y_0 + y_26 + y_49 >= 1
 c_1_27: y_25 + y_27 + y_35 + y_56 + y_78 + y_83 >= 1
 c_1_28: y_8 + y_11 + y_28 + y_51 + y_80 + y_97 >= 1
 c_1_29: y_29 >= 1
 c_1_30: y_30 + y_47 + y_91 >= 1
 c_1_31: y_8 + y_31 >= 1
 c_1_32: y_7 + y_32 + y_77 >= 1
 c_1_33: y_33 >= 1
 c_1_34: y_34 + y_41 + y_55 + y_57 + y_86 >= 1
 c_1_35: y_14 + y_24 + y_25 + y_27 + y_35 + y_56 + y_68 + y_78 + y_83 >= 1
 c_1_36: y_36 + y_57 + y_70 + y_81 >= 1
 c_1_37: y_15 + y_18 + y_37 + y_39 >= 1
 c_1_38: y_38 >= 1
 c_1_39: y_18 + y_37 + y_39 >= 1
 c_1_40: y_1 + y_3 + y_40 + y_61 + y_87 >= 1
 c_1_41: y_34 + y_41 + y_80 + y_84 + y_86 + y_93 >= 1
 c_1_42: y_5 + y_42 + y_77 >= 1
 c_1_43: y_9 + y_12 + y_43 + y_46 + y_59 + y_74 >= 1
 c_1_44: y_19 + y_44 >= 1
 c_1_45: y_45 + y_82 + y_89 >= 1
 c_1_46: y_12 + y_43 + y_46 + y_59 + y_72 + y_74 + y_91 >= 1
 c_1_47: y_30 + y_47 + y_73 + y_91 >= 1
 c_1_48: y_13 + y_21 + y_22 + y_48 + y_52 + y_76 + y_79 >= 1
 c_1_49: y_0 + y_26 + y_49 + y_62 >= 1
 c_1_50: y_50 + y_75 >= 1
 c_1_51: y_8 + y_11 + y_28 + y_51 + y_60 + y_97 + y_98 >= 1
 c_1_52: y_2 + y_6 + y_21 + y_48 + y_52 + y_76 >= 1
 c_1_53: y_53 + y_69 >= 1
 c_1_54: y_54 >= 1
 c_1_55: y_6 + y_34 + y_55 + y_57 + y_60 >= 1
 c_1_56: y_25 + y_27 + y_35 + y_56 + y_78 + y_82 >= 1
 c_1_57: y_6 + y_34 + y_36 + y_55 + y_57 >= 1
 c_1_58: y_17 + y_58 + y_64 >= 1
 c_1_59: y_12 + y_43 + y_46 + y_59 + y_72 + y_74 >= 1
 c_1_60: y_11 + y_51 + y_55 + y_60 + y_97 + y_98 >= 1
 c_1_61: y_3 + y_4 + y_40 + y_61 + y_64 >= 1
 c_1_62: y_0 + y_49 + y_62 + y_95 >= 1
 c_1_63: y_23 + y_63 + y_88 >= 1
 c_1_64: y_4 + y_58 + y_61 + y_64 >= 1
 c_1_65: y_65 + y_67 >= 1
 c_1_66: y_66 >= 1
 c_1_67: y_65 + y_67 >= 1
 c_1_68: y_14 + y_24 + y_35 + y_68 + y_83 >= 1
 c_1_69: y_53 + y_69 >= 1
 c_1_70: y_36 + y_70 + y_71 + y_81 >= 1
 c_1_71: y_15 + y_70 + y_71 + y_81 + y_96 >= 1
 c_1_72: y_12 + y_46 + y_59 + y_72 + y_74 >= 1
 c_1_73: y_47 + y_73 >= 1
 c_1_74: y_12 + y_43 + y_46 + y_59 + y_72 + y_74 >= 1
 c_1_75: y_50 + y_75 >= 1
 c_1_76: y_2 + y_6 + y_21 + y_48 + y_52 + y_76 >= 1
 c_1_77: y_5 + y_32 + y_42 + y_77 >= 1
 c_1_78: y_14 + y_24 + y_25 + y_27 + y_35 + y_56 + y_78 + y_82 >= 1
 c_1_79: y_22 + y_48 + y_79 >= 1
 c_1_80: y_28 + y_41 + y_80 >= 1
 c_1_81: y_36 + y_70 + y_71 + y_81 >= 1
 c_1_82: y_24 + y_45 + y_56 + y_78 + y_82 + y_89 >= 1
 c_1_83: y_14 + y_25 + y_27 + y_35 + y_68 + y_83 >= 1
 c_1_84: y_41 + y_84 + y_86 + y_93 >= 1
 c_1_85: y_85 + y_94 >= 1
 c_1_86: y_34 + y_41 + y_84 + y_86 + y_93 >= 1
 c_1_87: y_1 + y_5 + y_20 + y_40 + y_87 >= 1
 c_1_88: y_23 + y_63 + y_88 >= 1
 c_1_89: y_45 + y_82 + y_89 + y_99 >= 1
 c_1_90: y_10 + y_90 >= 1
 c_1_91: y_12 + y_30 + y_46 + y_47 + y_91 >= 1
 c_1_92: y_92 >= 1
 c_1_93: y_41 + y_84 + y_86 + y_93 >= 1
 c_1_94: y_85 + y_94 >= 1
 c_1_95: y_19 + y_62 + y_95 >= 1
 c_1_96: y_15 + y_71 + y_96 >= 1
 c_1_97: y_8 + y_11 + y_28 + y_51 + y_60 + y_97 + y_98 >= 1
 c_1_98: y_8 + y_51 + y_60 + y_97 + y_98 >= 1
 c_1_99: y_2 + y_10 + y_89 + y_99 >= 1
Bounds
 Constant = 1
Binaries
 y_0 y_1 y_2 y_3 y_4 y_5 y_6 y_7 y_8 y_9 y_10 y_11 y_12 y_13 y_14 y_15 y_16
 y_17 y_18 y_19 y_20 y_21 y_22 y_23 y_24 y_25 y_26 y_27 y_28 y_29 y_30 y_31
 y_32 y_33 y_34 y_35 y_36 y_37 y_38 y_39 y_40 y_41 y_42 y_43 y_44 y_45 y_46
 y_47 y_48 y_49 y_50 y_51 y_52 y_53 y_54 y_55 y_56 y_57 y_58 y_59 y_60 y_61
 y_62 y_63 y_64 y_65 y_66 y_67 y_68 y_69 y_70 y_71 y_72 y_73 y_74 y_75 y_76
 y_77 y_78 y_79 y_80 y_81 y_82 y_83 y_84 y_85 y_86 y_87 y_88 y_89 y_90 y_91
 y_92 y_93 y_94 y_95 y_96 y_97 y_98 y_99
End
